(declare-fun i3 () Int)
(push)
(push)
(assert false)
(check-sat)
(pop)
(check-sat)
(assert (= (* 53 (* (/ 901 211) (- i3 (- 901 53)))) 176))
(push)
(push)
(push)
(push)
(push)
(check-sat)
(pop)
(check-sat)
(check-sat)
(push)
(check-sat)
(pop)
(pop)
(pop)
(push)
(push)
(push)
(check-sat)
(pop)
(pop)
(pop)
(push)
(check-sat)
(push)
(check-sat)
(check-sat)
(pop)
(pop)
(pop)
(check-sat)
(check-sat)
(check-sat)
(pop)
(assert (= (+ 0.0 (- i3 (- 901 53))) 0.0))
(check-sat)
(pop)
(check-sat)
(check-sat)
(push)
(assert false)
(check-sat)
(check-sat)
(pop)
(check-sat)
